40 5
30 10 89 23 52 18 48 98 74 63 93 66 17 56 11 56 99 41 63 46 52 85 58 80 12 80 22 57 54 26 9 12 25 88 62 61 77 51 19 76 
18 77 11 77 67 2 1 17 2 57 58 17 16 87 48 38 20 3 3 33 49 37 84 91 1 76 99 49 14 98 82 77 93 88 73 68 34 2 40 77 
32 18 45 46 7 47 82 58 64 82 55 58 76 69 50 13 39 66 46 46 55 7 76 35 8 47 92 47 17 56 36 97 32 72 90 66 14 41 73 78 
58 37 82 65 15 43 6 2 13 91 25 19 75 51 64 24 98 89 58 55 71 91 1 37 9 32 77 30 51 18 12 4 15 24 45 52 83 61 40 18 
99 94 64 70 38 91 6 60 97 40 19 82 7 8 11 63 23 47 20 5 98 91 73 47 14 81 92 48 44 25 8 7 63 4 9 46 7 74 62 25 
